* #variable= 451 #constraint= 508 
+1 x276 -1 x23 = 0 ;
+1 x276 -1 x408 = 0 ;
-1 x23 +1 x1 >= 0 ;
-1 x23 +1 x12 >= 0 ;
+1 x23 -1 x1 -1 x12 >= -1 ;
+1 x23 +2 x34 +4 x45 +8 x56 +16 x67 +32 x78 +64 x89 +128 x100 +256 x111 +512 x122 +1024 x133 +2 x24 +4 x35 +8 x46 +16 x57 +32 x68 +64 x79 +128 x90 +256 x101 +512 x112 +1024 x123 +2048 x134 +4 x25 +8 x36 +16 x47 +32 x58 +64 x69 +128 x80 +256 x91 +512 x102 +1024 x113 +2048 x124 +4096 x135 +8 x26 +16 x37 +32 x48 +64 x59 +128 x70 +256 x81 +512 x92 +1024 x103 +2048 x114 +4096 x125 +8192 x136 +16 x27 +32 x38 +64 x49 +128 x60 +256 x71 +512 x82 +1024 x93 +2048 x104 +4096 x115 +8192 x126 +16384 x137 +32 x28 +64 x39 +128 x50 +256 x61 +512 x72 +1024 x83 +2048 x94 +4096 x105 +8192 x116 +16384 x127 +32768 x138 +64 x29 +128 x40 +256 x51 +512 x62 +1024 x73 +2048 x84 +4096 x95 +8192 x106 +16384 x117 +32768 x128 +65536 x139 +128 x30 +256 x41 +512 x52 +1024 x63 +2048 x74 +4096 x85 +8192 x96 +16384 x107 +32768 x118 +65536 x129 +131072 x140 +256 x31 +512 x42 +1024 x53 +2048 x64 +4096 x75 +8192 x86 +16384 x97 +32768 x108 +65536 x119 +131072 x130 +262144 x141 +512 x32 +1024 x43 +2048 x54 +4096 x65 +8192 x76 +16384 x87 +32768 x98 +65536 x109 +131072 x120 +262144 x131 +524288 x142 +1024 x33 +2048 x44 +4096 x55 +8192 x66 +16384 x77 +32768 x88 +65536 x99 +131072 x110 +262144 x121 +524288 x132 +1048576 x143 -1 x430 -2 x431 -4 x432 -8 x433 -16 x434 -32 x435 -64 x436 -128 x437 -256 x438 -512 x439 -1024 x440 -2048 x441 -4096 x442 -8192 x443 -16384 x444 -32768 x445 -65536 x446 -131072 x447 -262144 x448 -524288 x449 -1048576 x450 -2097152 x451 = 0; 
+1 x430 -1 x408 +2 x431 -2 x409 +4 x432 -4 x410 +8 x433 -8 x411 +16 x434 -16 x412 +32 x435 -32 x413 +64 x436 -64 x414 +128 x437 -128 x415 +256 x438 -256 x416 +512 x439 -512 x417 +1024 x440 -1024 x418 +2048 x441 -2048 x419 +4096 x442 -4096 x420 +8192 x443 -8192 x421 +16384 x444 -16384 x422 +32768 x445 -32768 x423 +65536 x446 -65536 x424 +131072 x447 -131072 x425 +262144 x448 -262144 x426 +524288 x449 -524288 x427 +1048576 x450 -1048576 x428 +2097152 x451 -2097152 x429 >= 1 ;
+1 x288 -1 x34 = 0 ;
+2 x145 +1 x277 -1 x24 -1 x288 = 0 ;
+1 x277 -1 x409 = 0 ;
-1 x34 +1 x2 >= 0 ;
-1 x34 +1 x12 >= 0 ;
+1 x34 -1 x2 -1 x12 >= -1 ;
-1 x24 +1 x1 >= 0 ;
-1 x24 +1 x13 >= 0 ;
+1 x24 -1 x1 -1 x13 >= -1 ;
+1 x300 -1 x45 = 0 ;
+2 x157 +1 x289 -1 x35 -1 x145 -1 x300 = 0 ;
+2 x146 +1 x278 -1 x25 -1 x289 = 0 ;
+1 x278 -1 x410 = 0 ;
-1 x45 +1 x3 >= 0 ;
-1 x45 +1 x12 >= 0 ;
+1 x45 -1 x3 -1 x12 >= -1 ;
-1 x35 +1 x2 >= 0 ;
-1 x35 +1 x13 >= 0 ;
+1 x35 -1 x2 -1 x13 >= -1 ;
-1 x25 +1 x1 >= 0 ;
-1 x25 +1 x14 >= 0 ;
+1 x25 -1 x1 -1 x14 >= -1 ;
+1 x312 -1 x56 = 0 ;
+2 x169 +1 x301 -1 x46 -1 x157 -1 x312 = 0 ;
+2 x158 +1 x290 -1 x36 -1 x146 -1 x301 = 0 ;
+2 x147 +1 x279 -1 x26 -1 x290 = 0 ;
+1 x279 -1 x411 = 0 ;
-1 x56 +1 x4 >= 0 ;
-1 x56 +1 x12 >= 0 ;
+1 x56 -1 x4 -1 x12 >= -1 ;
-1 x46 +1 x3 >= 0 ;
-1 x46 +1 x13 >= 0 ;
+1 x46 -1 x3 -1 x13 >= -1 ;
-1 x36 +1 x2 >= 0 ;
-1 x36 +1 x14 >= 0 ;
+1 x36 -1 x2 -1 x14 >= -1 ;
-1 x26 +1 x1 >= 0 ;
-1 x26 +1 x15 >= 0 ;
+1 x26 -1 x1 -1 x15 >= -1 ;
+1 x324 -1 x67 = 0 ;
+2 x181 +1 x313 -1 x57 -1 x169 -1 x324 = 0 ;
+2 x170 +1 x302 -1 x47 -1 x158 -1 x313 = 0 ;
+2 x159 +1 x291 -1 x37 -1 x147 -1 x302 = 0 ;
+2 x148 +1 x280 -1 x27 -1 x291 = 0 ;
+1 x280 -1 x412 = 0 ;
-1 x67 +1 x5 >= 0 ;
-1 x67 +1 x12 >= 0 ;
+1 x67 -1 x5 -1 x12 >= -1 ;
-1 x57 +1 x4 >= 0 ;
-1 x57 +1 x13 >= 0 ;
+1 x57 -1 x4 -1 x13 >= -1 ;
-1 x47 +1 x3 >= 0 ;
-1 x47 +1 x14 >= 0 ;
+1 x47 -1 x3 -1 x14 >= -1 ;
-1 x37 +1 x2 >= 0 ;
-1 x37 +1 x15 >= 0 ;
+1 x37 -1 x2 -1 x15 >= -1 ;
-1 x27 +1 x1 >= 0 ;
-1 x27 +1 x16 >= 0 ;
+1 x27 -1 x1 -1 x16 >= -1 ;
+1 x336 -1 x78 = 0 ;
+2 x193 +1 x325 -1 x68 -1 x181 -1 x336 = 0 ;
+2 x182 +1 x314 -1 x58 -1 x170 -1 x325 = 0 ;
+2 x171 +1 x303 -1 x48 -1 x159 -1 x314 = 0 ;
+2 x160 +1 x292 -1 x38 -1 x148 -1 x303 = 0 ;
+2 x149 +1 x281 -1 x28 -1 x292 = 0 ;
+1 x281 -1 x413 = 0 ;
-1 x78 +1 x6 >= 0 ;
-1 x78 +1 x12 >= 0 ;
+1 x78 -1 x6 -1 x12 >= -1 ;
-1 x68 +1 x5 >= 0 ;
-1 x68 +1 x13 >= 0 ;
+1 x68 -1 x5 -1 x13 >= -1 ;
-1 x58 +1 x4 >= 0 ;
-1 x58 +1 x14 >= 0 ;
+1 x58 -1 x4 -1 x14 >= -1 ;
-1 x48 +1 x3 >= 0 ;
-1 x48 +1 x15 >= 0 ;
+1 x48 -1 x3 -1 x15 >= -1 ;
-1 x38 +1 x2 >= 0 ;
-1 x38 +1 x16 >= 0 ;
+1 x38 -1 x2 -1 x16 >= -1 ;
-1 x28 +1 x1 >= 0 ;
-1 x28 +1 x17 >= 0 ;
+1 x28 -1 x1 -1 x17 >= -1 ;
+1 x348 -1 x89 = 0 ;
+2 x205 +1 x337 -1 x79 -1 x193 -1 x348 = 0 ;
+2 x194 +1 x326 -1 x69 -1 x182 -1 x337 = 0 ;
+2 x183 +1 x315 -1 x59 -1 x171 -1 x326 = 0 ;
+2 x172 +1 x304 -1 x49 -1 x160 -1 x315 = 0 ;
+2 x161 +1 x293 -1 x39 -1 x149 -1 x304 = 0 ;
+2 x150 +1 x282 -1 x29 -1 x293 = 0 ;
+1 x282 -1 x414 = 0 ;
-1 x89 +1 x7 >= 0 ;
-1 x89 +1 x12 >= 0 ;
+1 x89 -1 x7 -1 x12 >= -1 ;
-1 x79 +1 x6 >= 0 ;
-1 x79 +1 x13 >= 0 ;
+1 x79 -1 x6 -1 x13 >= -1 ;
-1 x69 +1 x5 >= 0 ;
-1 x69 +1 x14 >= 0 ;
+1 x69 -1 x5 -1 x14 >= -1 ;
-1 x59 +1 x4 >= 0 ;
-1 x59 +1 x15 >= 0 ;
+1 x59 -1 x4 -1 x15 >= -1 ;
-1 x49 +1 x3 >= 0 ;
-1 x49 +1 x16 >= 0 ;
+1 x49 -1 x3 -1 x16 >= -1 ;
-1 x39 +1 x2 >= 0 ;
-1 x39 +1 x17 >= 0 ;
+1 x39 -1 x2 -1 x17 >= -1 ;
-1 x29 +1 x1 >= 0 ;
-1 x29 +1 x18 >= 0 ;
+1 x29 -1 x1 -1 x18 >= -1 ;
+1 x360 -1 x100 = 0 ;
+2 x217 +1 x349 -1 x90 -1 x205 -1 x360 = 0 ;
+2 x206 +1 x338 -1 x80 -1 x194 -1 x349 = 0 ;
+2 x195 +1 x327 -1 x70 -1 x183 -1 x338 = 0 ;
+2 x184 +1 x316 -1 x60 -1 x172 -1 x327 = 0 ;
+2 x173 +1 x305 -1 x50 -1 x161 -1 x316 = 0 ;
+2 x162 +1 x294 -1 x40 -1 x150 -1 x305 = 0 ;
+2 x151 +1 x283 -1 x30 -1 x294 = 0 ;
+1 x283 -1 x415 = 0 ;
-1 x100 +1 x8 >= 0 ;
-1 x100 +1 x12 >= 0 ;
+1 x100 -1 x8 -1 x12 >= -1 ;
-1 x90 +1 x7 >= 0 ;
-1 x90 +1 x13 >= 0 ;
+1 x90 -1 x7 -1 x13 >= -1 ;
-1 x80 +1 x6 >= 0 ;
-1 x80 +1 x14 >= 0 ;
+1 x80 -1 x6 -1 x14 >= -1 ;
-1 x70 +1 x5 >= 0 ;
-1 x70 +1 x15 >= 0 ;
+1 x70 -1 x5 -1 x15 >= -1 ;
-1 x60 +1 x4 >= 0 ;
-1 x60 +1 x16 >= 0 ;
+1 x60 -1 x4 -1 x16 >= -1 ;
-1 x50 +1 x3 >= 0 ;
-1 x50 +1 x17 >= 0 ;
+1 x50 -1 x3 -1 x17 >= -1 ;
-1 x40 +1 x2 >= 0 ;
-1 x40 +1 x18 >= 0 ;
+1 x40 -1 x2 -1 x18 >= -1 ;
-1 x30 +1 x1 >= 0 ;
-1 x30 +1 x19 >= 0 ;
+1 x30 -1 x1 -1 x19 >= -1 ;
+1 x372 -1 x111 = 0 ;
+2 x229 +1 x361 -1 x101 -1 x217 -1 x372 = 0 ;
+2 x218 +1 x350 -1 x91 -1 x206 -1 x361 = 0 ;
+2 x207 +1 x339 -1 x81 -1 x195 -1 x350 = 0 ;
+2 x196 +1 x328 -1 x71 -1 x184 -1 x339 = 0 ;
+2 x185 +1 x317 -1 x61 -1 x173 -1 x328 = 0 ;
+2 x174 +1 x306 -1 x51 -1 x162 -1 x317 = 0 ;
+2 x163 +1 x295 -1 x41 -1 x151 -1 x306 = 0 ;
+2 x152 +1 x284 -1 x31 -1 x295 = 0 ;
+1 x284 -1 x416 = 0 ;
-1 x111 +1 x9 >= 0 ;
-1 x111 +1 x12 >= 0 ;
+1 x111 -1 x9 -1 x12 >= -1 ;
-1 x101 +1 x8 >= 0 ;
-1 x101 +1 x13 >= 0 ;
+1 x101 -1 x8 -1 x13 >= -1 ;
-1 x91 +1 x7 >= 0 ;
-1 x91 +1 x14 >= 0 ;
+1 x91 -1 x7 -1 x14 >= -1 ;
-1 x81 +1 x6 >= 0 ;
-1 x81 +1 x15 >= 0 ;
+1 x81 -1 x6 -1 x15 >= -1 ;
-1 x71 +1 x5 >= 0 ;
-1 x71 +1 x16 >= 0 ;
+1 x71 -1 x5 -1 x16 >= -1 ;
-1 x61 +1 x4 >= 0 ;
-1 x61 +1 x17 >= 0 ;
+1 x61 -1 x4 -1 x17 >= -1 ;
-1 x51 +1 x3 >= 0 ;
-1 x51 +1 x18 >= 0 ;
+1 x51 -1 x3 -1 x18 >= -1 ;
-1 x41 +1 x2 >= 0 ;
-1 x41 +1 x19 >= 0 ;
+1 x41 -1 x2 -1 x19 >= -1 ;
-1 x31 +1 x1 >= 0 ;
-1 x31 +1 x20 >= 0 ;
+1 x31 -1 x1 -1 x20 >= -1 ;
+1 x384 -1 x122 = 0 ;
+2 x241 +1 x373 -1 x112 -1 x229 -1 x384 = 0 ;
+2 x230 +1 x362 -1 x102 -1 x218 -1 x373 = 0 ;
+2 x219 +1 x351 -1 x92 -1 x207 -1 x362 = 0 ;
+2 x208 +1 x340 -1 x82 -1 x196 -1 x351 = 0 ;
+2 x197 +1 x329 -1 x72 -1 x185 -1 x340 = 0 ;
+2 x186 +1 x318 -1 x62 -1 x174 -1 x329 = 0 ;
+2 x175 +1 x307 -1 x52 -1 x163 -1 x318 = 0 ;
+2 x164 +1 x296 -1 x42 -1 x152 -1 x307 = 0 ;
+2 x153 +1 x285 -1 x32 -1 x296 = 0 ;
+1 x285 -1 x417 = 0 ;
-1 x122 +1 x10 >= 0 ;
-1 x122 +1 x12 >= 0 ;
+1 x122 -1 x10 -1 x12 >= -1 ;
-1 x112 +1 x9 >= 0 ;
-1 x112 +1 x13 >= 0 ;
+1 x112 -1 x9 -1 x13 >= -1 ;
-1 x102 +1 x8 >= 0 ;
-1 x102 +1 x14 >= 0 ;
+1 x102 -1 x8 -1 x14 >= -1 ;
-1 x92 +1 x7 >= 0 ;
-1 x92 +1 x15 >= 0 ;
+1 x92 -1 x7 -1 x15 >= -1 ;
-1 x82 +1 x6 >= 0 ;
-1 x82 +1 x16 >= 0 ;
+1 x82 -1 x6 -1 x16 >= -1 ;
-1 x72 +1 x5 >= 0 ;
-1 x72 +1 x17 >= 0 ;
+1 x72 -1 x5 -1 x17 >= -1 ;
-1 x62 +1 x4 >= 0 ;
-1 x62 +1 x18 >= 0 ;
+1 x62 -1 x4 -1 x18 >= -1 ;
-1 x52 +1 x3 >= 0 ;
-1 x52 +1 x19 >= 0 ;
+1 x52 -1 x3 -1 x19 >= -1 ;
-1 x42 +1 x2 >= 0 ;
-1 x42 +1 x20 >= 0 ;
+1 x42 -1 x2 -1 x20 >= -1 ;
-1 x32 +1 x1 >= 0 ;
-1 x32 +1 x21 >= 0 ;
+1 x32 -1 x1 -1 x21 >= -1 ;
+1 x396 -1 x133 = 0 ;
+2 x253 +1 x385 -1 x123 -1 x241 -1 x396 = 0 ;
+2 x242 +1 x374 -1 x113 -1 x230 -1 x385 = 0 ;
+2 x231 +1 x363 -1 x103 -1 x219 -1 x374 = 0 ;
+2 x220 +1 x352 -1 x93 -1 x208 -1 x363 = 0 ;
+2 x209 +1 x341 -1 x83 -1 x197 -1 x352 = 0 ;
+2 x198 +1 x330 -1 x73 -1 x186 -1 x341 = 0 ;
+2 x187 +1 x319 -1 x63 -1 x175 -1 x330 = 0 ;
+2 x176 +1 x308 -1 x53 -1 x164 -1 x319 = 0 ;
+2 x165 +1 x297 -1 x43 -1 x153 -1 x308 = 0 ;
+2 x154 +1 x286 -1 x33 -1 x297 = 0 ;
+1 x286 -1 x418 = 0 ;
-1 x133 +1 x11 >= 0 ;
-1 x133 +1 x12 >= 0 ;
+1 x133 -1 x11 -1 x12 >= -1 ;
-1 x123 +1 x10 >= 0 ;
-1 x123 +1 x13 >= 0 ;
+1 x123 -1 x10 -1 x13 >= -1 ;
-1 x113 +1 x9 >= 0 ;
-1 x113 +1 x14 >= 0 ;
+1 x113 -1 x9 -1 x14 >= -1 ;
-1 x103 +1 x8 >= 0 ;
-1 x103 +1 x15 >= 0 ;
+1 x103 -1 x8 -1 x15 >= -1 ;
-1 x93 +1 x7 >= 0 ;
-1 x93 +1 x16 >= 0 ;
+1 x93 -1 x7 -1 x16 >= -1 ;
-1 x83 +1 x6 >= 0 ;
-1 x83 +1 x17 >= 0 ;
+1 x83 -1 x6 -1 x17 >= -1 ;
-1 x73 +1 x5 >= 0 ;
-1 x73 +1 x18 >= 0 ;
+1 x73 -1 x5 -1 x18 >= -1 ;
-1 x63 +1 x4 >= 0 ;
-1 x63 +1 x19 >= 0 ;
+1 x63 -1 x4 -1 x19 >= -1 ;
-1 x53 +1 x3 >= 0 ;
-1 x53 +1 x20 >= 0 ;
+1 x53 -1 x3 -1 x20 >= -1 ;
-1 x43 +1 x2 >= 0 ;
-1 x43 +1 x21 >= 0 ;
+1 x43 -1 x2 -1 x21 >= -1 ;
-1 x33 +1 x1 >= 0 ;
-1 x33 +1 x22 >= 0 ;
+1 x33 -1 x1 -1 x22 >= -1 ;
+2 x265 +1 x397 -1 x134 -1 x253 = 0 ;
+2 x254 +1 x386 -1 x124 -1 x242 -1 x397 = 0 ;
+2 x243 +1 x375 -1 x114 -1 x231 -1 x386 = 0 ;
+2 x232 +1 x364 -1 x104 -1 x220 -1 x375 = 0 ;
+2 x221 +1 x353 -1 x94 -1 x209 -1 x364 = 0 ;
+2 x210 +1 x342 -1 x84 -1 x198 -1 x353 = 0 ;
+2 x199 +1 x331 -1 x74 -1 x187 -1 x342 = 0 ;
+2 x188 +1 x320 -1 x64 -1 x176 -1 x331 = 0 ;
+2 x177 +1 x309 -1 x54 -1 x165 -1 x320 = 0 ;
+2 x166 +1 x298 -1 x44 -1 x154 -1 x309 = 0 ;
+1 x298 -1 x419 = 0 ;
-1 x134 +1 x11 >= 0 ;
-1 x134 +1 x13 >= 0 ;
+1 x134 -1 x11 -1 x13 >= -1 ;
-1 x124 +1 x10 >= 0 ;
-1 x124 +1 x14 >= 0 ;
+1 x124 -1 x10 -1 x14 >= -1 ;
-1 x114 +1 x9 >= 0 ;
-1 x114 +1 x15 >= 0 ;
+1 x114 -1 x9 -1 x15 >= -1 ;
-1 x104 +1 x8 >= 0 ;
-1 x104 +1 x16 >= 0 ;
+1 x104 -1 x8 -1 x16 >= -1 ;
-1 x94 +1 x7 >= 0 ;
-1 x94 +1 x17 >= 0 ;
+1 x94 -1 x7 -1 x17 >= -1 ;
-1 x84 +1 x6 >= 0 ;
-1 x84 +1 x18 >= 0 ;
+1 x84 -1 x6 -1 x18 >= -1 ;
-1 x74 +1 x5 >= 0 ;
-1 x74 +1 x19 >= 0 ;
+1 x74 -1 x5 -1 x19 >= -1 ;
-1 x64 +1 x4 >= 0 ;
-1 x64 +1 x20 >= 0 ;
+1 x64 -1 x4 -1 x20 >= -1 ;
-1 x54 +1 x3 >= 0 ;
-1 x54 +1 x21 >= 0 ;
+1 x54 -1 x3 -1 x21 >= -1 ;
-1 x44 +1 x2 >= 0 ;
-1 x44 +1 x22 >= 0 ;
+1 x44 -1 x2 -1 x22 >= -1 ;
+2 x266 +1 x398 -1 x135 -1 x254 -1 x265 = 0 ;
+2 x255 +1 x387 -1 x125 -1 x243 -1 x398 = 0 ;
+2 x244 +1 x376 -1 x115 -1 x232 -1 x387 = 0 ;
+2 x233 +1 x365 -1 x105 -1 x221 -1 x376 = 0 ;
+2 x222 +1 x354 -1 x95 -1 x210 -1 x365 = 0 ;
+2 x211 +1 x343 -1 x85 -1 x199 -1 x354 = 0 ;
+2 x200 +1 x332 -1 x75 -1 x188 -1 x343 = 0 ;
+2 x189 +1 x321 -1 x65 -1 x177 -1 x332 = 0 ;
+2 x178 +1 x310 -1 x55 -1 x166 -1 x321 = 0 ;
+1 x310 -1 x420 = 0 ;
-1 x135 +1 x11 >= 0 ;
-1 x135 +1 x14 >= 0 ;
+1 x135 -1 x11 -1 x14 >= -1 ;
-1 x125 +1 x10 >= 0 ;
-1 x125 +1 x15 >= 0 ;
+1 x125 -1 x10 -1 x15 >= -1 ;
-1 x115 +1 x9 >= 0 ;
-1 x115 +1 x16 >= 0 ;
+1 x115 -1 x9 -1 x16 >= -1 ;
-1 x105 +1 x8 >= 0 ;
-1 x105 +1 x17 >= 0 ;
+1 x105 -1 x8 -1 x17 >= -1 ;
-1 x95 +1 x7 >= 0 ;
-1 x95 +1 x18 >= 0 ;
+1 x95 -1 x7 -1 x18 >= -1 ;
-1 x85 +1 x6 >= 0 ;
-1 x85 +1 x19 >= 0 ;
+1 x85 -1 x6 -1 x19 >= -1 ;
-1 x75 +1 x5 >= 0 ;
-1 x75 +1 x20 >= 0 ;
+1 x75 -1 x5 -1 x20 >= -1 ;
-1 x65 +1 x4 >= 0 ;
-1 x65 +1 x21 >= 0 ;
+1 x65 -1 x4 -1 x21 >= -1 ;
-1 x55 +1 x3 >= 0 ;
-1 x55 +1 x22 >= 0 ;
+1 x55 -1 x3 -1 x22 >= -1 ;
+2 x267 +1 x399 -1 x136 -1 x255 -1 x266 = 0 ;
+2 x256 +1 x388 -1 x126 -1 x244 -1 x399 = 0 ;
+2 x245 +1 x377 -1 x116 -1 x233 -1 x388 = 0 ;
+2 x234 +1 x366 -1 x106 -1 x222 -1 x377 = 0 ;
+2 x223 +1 x355 -1 x96 -1 x211 -1 x366 = 0 ;
+2 x212 +1 x344 -1 x86 -1 x200 -1 x355 = 0 ;
+2 x201 +1 x333 -1 x76 -1 x189 -1 x344 = 0 ;
+2 x190 +1 x322 -1 x66 -1 x178 -1 x333 = 0 ;
+1 x322 -1 x421 = 0 ;
-1 x136 +1 x11 >= 0 ;
-1 x136 +1 x15 >= 0 ;
+1 x136 -1 x11 -1 x15 >= -1 ;
-1 x126 +1 x10 >= 0 ;
-1 x126 +1 x16 >= 0 ;
+1 x126 -1 x10 -1 x16 >= -1 ;
-1 x116 +1 x9 >= 0 ;
-1 x116 +1 x17 >= 0 ;
+1 x116 -1 x9 -1 x17 >= -1 ;
-1 x106 +1 x8 >= 0 ;
-1 x106 +1 x18 >= 0 ;
+1 x106 -1 x8 -1 x18 >= -1 ;
-1 x96 +1 x7 >= 0 ;
-1 x96 +1 x19 >= 0 ;
+1 x96 -1 x7 -1 x19 >= -1 ;
-1 x86 +1 x6 >= 0 ;
-1 x86 +1 x20 >= 0 ;
+1 x86 -1 x6 -1 x20 >= -1 ;
-1 x76 +1 x5 >= 0 ;
-1 x76 +1 x21 >= 0 ;
+1 x76 -1 x5 -1 x21 >= -1 ;
-1 x66 +1 x4 >= 0 ;
-1 x66 +1 x22 >= 0 ;
+1 x66 -1 x4 -1 x22 >= -1 ;
+2 x268 +1 x400 -1 x137 -1 x256 -1 x267 = 0 ;
+2 x257 +1 x389 -1 x127 -1 x245 -1 x400 = 0 ;
+2 x246 +1 x378 -1 x117 -1 x234 -1 x389 = 0 ;
+2 x235 +1 x367 -1 x107 -1 x223 -1 x378 = 0 ;
+2 x224 +1 x356 -1 x97 -1 x212 -1 x367 = 0 ;
+2 x213 +1 x345 -1 x87 -1 x201 -1 x356 = 0 ;
+2 x202 +1 x334 -1 x77 -1 x190 -1 x345 = 0 ;
+1 x334 -1 x422 = 0 ;
-1 x137 +1 x11 >= 0 ;
-1 x137 +1 x16 >= 0 ;
+1 x137 -1 x11 -1 x16 >= -1 ;
-1 x127 +1 x10 >= 0 ;
-1 x127 +1 x17 >= 0 ;
+1 x127 -1 x10 -1 x17 >= -1 ;
-1 x117 +1 x9 >= 0 ;
-1 x117 +1 x18 >= 0 ;
+1 x117 -1 x9 -1 x18 >= -1 ;
-1 x107 +1 x8 >= 0 ;
-1 x107 +1 x19 >= 0 ;
+1 x107 -1 x8 -1 x19 >= -1 ;
-1 x97 +1 x7 >= 0 ;
-1 x97 +1 x20 >= 0 ;
+1 x97 -1 x7 -1 x20 >= -1 ;
-1 x87 +1 x6 >= 0 ;
-1 x87 +1 x21 >= 0 ;
+1 x87 -1 x6 -1 x21 >= -1 ;
-1 x77 +1 x5 >= 0 ;
-1 x77 +1 x22 >= 0 ;
+1 x77 -1 x5 -1 x22 >= -1 ;
+2 x269 +1 x401 -1 x138 -1 x257 -1 x268 = 0 ;
+2 x258 +1 x390 -1 x128 -1 x246 -1 x401 = 0 ;
+2 x247 +1 x379 -1 x118 -1 x235 -1 x390 = 0 ;
+2 x236 +1 x368 -1 x108 -1 x224 -1 x379 = 0 ;
+2 x225 +1 x357 -1 x98 -1 x213 -1 x368 = 0 ;
+2 x214 +1 x346 -1 x88 -1 x202 -1 x357 = 0 ;
+1 x346 -1 x423 = 0 ;
-1 x138 +1 x11 >= 0 ;
-1 x138 +1 x17 >= 0 ;
+1 x138 -1 x11 -1 x17 >= -1 ;
-1 x128 +1 x10 >= 0 ;
-1 x128 +1 x18 >= 0 ;
+1 x128 -1 x10 -1 x18 >= -1 ;
-1 x118 +1 x9 >= 0 ;
-1 x118 +1 x19 >= 0 ;
+1 x118 -1 x9 -1 x19 >= -1 ;
-1 x108 +1 x8 >= 0 ;
-1 x108 +1 x20 >= 0 ;
+1 x108 -1 x8 -1 x20 >= -1 ;
-1 x98 +1 x7 >= 0 ;
-1 x98 +1 x21 >= 0 ;
+1 x98 -1 x7 -1 x21 >= -1 ;
-1 x88 +1 x6 >= 0 ;
-1 x88 +1 x22 >= 0 ;
+1 x88 -1 x6 -1 x22 >= -1 ;
+2 x270 +1 x402 -1 x139 -1 x258 -1 x269 = 0 ;
+2 x259 +1 x391 -1 x129 -1 x247 -1 x402 = 0 ;
+2 x248 +1 x380 -1 x119 -1 x236 -1 x391 = 0 ;
+2 x237 +1 x369 -1 x109 -1 x225 -1 x380 = 0 ;
+2 x226 +1 x358 -1 x99 -1 x214 -1 x369 = 0 ;
+1 x358 -1 x424 = 0 ;
-1 x139 +1 x11 >= 0 ;
-1 x139 +1 x18 >= 0 ;
+1 x139 -1 x11 -1 x18 >= -1 ;
-1 x129 +1 x10 >= 0 ;
-1 x129 +1 x19 >= 0 ;
+1 x129 -1 x10 -1 x19 >= -1 ;
-1 x119 +1 x9 >= 0 ;
-1 x119 +1 x20 >= 0 ;
+1 x119 -1 x9 -1 x20 >= -1 ;
-1 x109 +1 x8 >= 0 ;
-1 x109 +1 x21 >= 0 ;
+1 x109 -1 x8 -1 x21 >= -1 ;
-1 x99 +1 x7 >= 0 ;
-1 x99 +1 x22 >= 0 ;
+1 x99 -1 x7 -1 x22 >= -1 ;
+2 x271 +1 x403 -1 x140 -1 x259 -1 x270 = 0 ;
+2 x260 +1 x392 -1 x130 -1 x248 -1 x403 = 0 ;
+2 x249 +1 x381 -1 x120 -1 x237 -1 x392 = 0 ;
+2 x238 +1 x370 -1 x110 -1 x226 -1 x381 = 0 ;
+1 x370 -1 x425 = 0 ;
-1 x140 +1 x11 >= 0 ;
-1 x140 +1 x19 >= 0 ;
+1 x140 -1 x11 -1 x19 >= -1 ;
-1 x130 +1 x10 >= 0 ;
-1 x130 +1 x20 >= 0 ;
+1 x130 -1 x10 -1 x20 >= -1 ;
-1 x120 +1 x9 >= 0 ;
-1 x120 +1 x21 >= 0 ;
+1 x120 -1 x9 -1 x21 >= -1 ;
-1 x110 +1 x8 >= 0 ;
-1 x110 +1 x22 >= 0 ;
+1 x110 -1 x8 -1 x22 >= -1 ;
+2 x272 +1 x404 -1 x141 -1 x260 -1 x271 = 0 ;
+2 x261 +1 x393 -1 x131 -1 x249 -1 x404 = 0 ;
+2 x250 +1 x382 -1 x121 -1 x238 -1 x393 = 0 ;
+1 x382 -1 x426 = 0 ;
-1 x141 +1 x11 >= 0 ;
-1 x141 +1 x20 >= 0 ;
+1 x141 -1 x11 -1 x20 >= -1 ;
-1 x131 +1 x10 >= 0 ;
-1 x131 +1 x21 >= 0 ;
+1 x131 -1 x10 -1 x21 >= -1 ;
-1 x121 +1 x9 >= 0 ;
-1 x121 +1 x22 >= 0 ;
+1 x121 -1 x9 -1 x22 >= -1 ;
+2 x273 +1 x405 -1 x142 -1 x261 -1 x272 = 0 ;
+2 x262 +1 x394 -1 x132 -1 x250 -1 x405 = 0 ;
+1 x394 -1 x427 = 0 ;
-1 x142 +1 x11 >= 0 ;
-1 x142 +1 x21 >= 0 ;
+1 x142 -1 x11 -1 x21 >= -1 ;
-1 x132 +1 x10 >= 0 ;
-1 x132 +1 x22 >= 0 ;
+1 x132 -1 x10 -1 x22 >= -1 ;
+2 x274 +1 x406 -1 x143 -1 x262 -1 x273 = 0 ;
+1 x406 -1 x428 = 0 ;
-1 x143 +1 x11 >= 0 ;
-1 x143 +1 x22 >= 0 ;
+1 x143 -1 x11 -1 x22 >= -1 ;
+1 x274 -1 x429 = 0 ;
